c User generated cnf file
p cnf 12 22
1 7 -9 0 
2 5 -4 0 
9 9 -7 0 
7 1 -9 0 
11 2 -7 0 
2 -10 1 0 
4 -3 5 0 
7 2 -5 0 
6 12 -10 0 
8 12 -3 0 
2 12 -9 0 
9 7 -2 0 
12 9 -4 0 
7 -10 1 0 
2 -6 9 0 
8 -12 1 0 
10 8 -6 0 
3 3 -3 0 
1 -11 7 0 
5 -7 5 0 
10 -3 12 0 
3 -11 8 0 
